p cnf 240 788
1 2 3 0
4 5 6 0
7 8 9 0
10 11 12 0
13 14 15 0
16 17 18 0
19 20 21 0
22 23 24 0
25 26 27 0
28 29 30 0
31 32 33 0
34 35 36 0
37 38 39 0
40 41 42 0
43 44 45 0
46 47 48 0
49 50 51 0
52 53 54 0
55 56 57 0
58 59 60 0
61 62 63 0
64 65 66 0
67 68 69 0
70 71 72 0
73 74 75 0
76 77 78 0
79 80 81 0
82 83 84 0
85 86 87 0
88 89 90 0
91 92 93 0
94 95 96 0
97 98 99 0
100 101 102 0
103 104 105 0
106 107 108 0
109 110 111 0
112 113 114 0
115 116 117 0
118 119 120 0
121 122 123 0
124 125 126 0
127 128 129 0
130 131 132 0
133 134 135 0
136 137 138 0
139 140 141 0
142 143 144 0
145 146 147 0
148 149 150 0
151 152 153 0
154 155 156 0
157 158 159 0
160 161 162 0
163 164 165 0
166 167 168 0
169 170 171 0
172 173 174 0
175 176 177 0
178 179 180 0
181 182 183 0
184 185 186 0
187 188 189 0
190 191 192 0
193 194 195 0
196 197 198 0
199 200 201 0
202 203 204 0
205 206 207 0
208 209 210 0
211 212 213 0
214 215 216 0
217 218 219 0
220 221 222 0
223 224 225 0
226 227 228 0
229 230 231 0
232 233 234 0
235 236 237 0
238 239 240 0
-1 -2 0
-1 -3 0
-2 -3 0
-4 -5 0
-4 -6 0
-5 -6 0
-7 -8 0
-7 -9 0
-8 -9 0
-10 -11 0
-10 -12 0
-11 -12 0
-13 -14 0
-13 -15 0
-14 -15 0
-16 -17 0
-16 -18 0
-17 -18 0
-19 -20 0
-19 -21 0
-20 -21 0
-22 -23 0
-22 -24 0
-23 -24 0
-25 -26 0
-25 -27 0
-26 -27 0
-28 -29 0
-28 -30 0
-29 -30 0
-31 -32 0
-31 -33 0
-32 -33 0
-34 -35 0
-34 -36 0
-35 -36 0
-37 -38 0
-37 -39 0
-38 -39 0
-40 -41 0
-40 -42 0
-41 -42 0
-43 -44 0
-43 -45 0
-44 -45 0
-46 -47 0
-46 -48 0
-47 -48 0
-49 -50 0
-49 -51 0
-50 -51 0
-52 -53 0
-52 -54 0
-53 -54 0
-55 -56 0
-55 -57 0
-56 -57 0
-58 -59 0
-58 -60 0
-59 -60 0
-61 -62 0
-61 -63 0
-62 -63 0
-64 -65 0
-64 -66 0
-65 -66 0
-67 -68 0
-67 -69 0
-68 -69 0
-70 -71 0
-70 -72 0
-71 -72 0
-73 -74 0
-73 -75 0
-74 -75 0
-76 -77 0
-76 -78 0
-77 -78 0
-79 -80 0
-79 -81 0
-80 -81 0
-82 -83 0
-82 -84 0
-83 -84 0
-85 -86 0
-85 -87 0
-86 -87 0
-88 -89 0
-88 -90 0
-89 -90 0
-91 -92 0
-91 -93 0
-92 -93 0
-94 -95 0
-94 -96 0
-95 -96 0
-97 -98 0
-97 -99 0
-98 -99 0
-100 -101 0
-100 -102 0
-101 -102 0
-103 -104 0
-103 -105 0
-104 -105 0
-106 -107 0
-106 -108 0
-107 -108 0
-109 -110 0
-109 -111 0
-110 -111 0
-112 -113 0
-112 -114 0
-113 -114 0
-115 -116 0
-115 -117 0
-116 -117 0
-118 -119 0
-118 -120 0
-119 -120 0
-121 -122 0
-121 -123 0
-122 -123 0
-124 -125 0
-124 -126 0
-125 -126 0
-127 -128 0
-127 -129 0
-128 -129 0
-130 -131 0
-130 -132 0
-131 -132 0
-133 -134 0
-133 -135 0
-134 -135 0
-136 -137 0
-136 -138 0
-137 -138 0
-139 -140 0
-139 -141 0
-140 -141 0
-142 -143 0
-142 -144 0
-143 -144 0
-145 -146 0
-145 -147 0
-146 -147 0
-148 -149 0
-148 -150 0
-149 -150 0
-151 -152 0
-151 -153 0
-152 -153 0
-154 -155 0
-154 -156 0
-155 -156 0
-157 -158 0
-157 -159 0
-158 -159 0
-160 -161 0
-160 -162 0
-161 -162 0
-163 -164 0
-163 -165 0
-164 -165 0
-166 -167 0
-166 -168 0
-167 -168 0
-169 -170 0
-169 -171 0
-170 -171 0
-172 -173 0
-172 -174 0
-173 -174 0
-175 -176 0
-175 -177 0
-176 -177 0
-178 -179 0
-178 -180 0
-179 -180 0
-181 -182 0
-181 -183 0
-182 -183 0
-184 -185 0
-184 -186 0
-185 -186 0
-187 -188 0
-187 -189 0
-188 -189 0
-190 -191 0
-190 -192 0
-191 -192 0
-193 -194 0
-193 -195 0
-194 -195 0
-196 -197 0
-196 -198 0
-197 -198 0
-199 -200 0
-199 -201 0
-200 -201 0
-202 -203 0
-202 -204 0
-203 -204 0
-205 -206 0
-205 -207 0
-206 -207 0
-208 -209 0
-208 -210 0
-209 -210 0
-211 -212 0
-211 -213 0
-212 -213 0
-214 -215 0
-214 -216 0
-215 -216 0
-217 -218 0
-217 -219 0
-218 -219 0
-220 -221 0
-220 -222 0
-221 -222 0
-223 -224 0
-223 -225 0
-224 -225 0
-226 -227 0
-226 -228 0
-227 -228 0
-229 -230 0
-229 -231 0
-230 -231 0
-232 -233 0
-232 -234 0
-233 -234 0
-235 -236 0
-235 -237 0
-236 -237 0
-238 -239 0
-238 -240 0
-239 -240 0
-1 -97 0
-1 -214 0
-4 -172 0
-4 -193 0
-7 -19 0
-7 -142 0
-10 -163 0
-10 -214 0
-13 -82 0
-13 -199 0
-16 -199 0
-16 -220 0
-19 -7 0
-19 -172 0
-22 -70 0
-22 -202 0
-25 -73 0
-25 -151 0
-28 -133 0
-28 -229 0
-31 -46 0
-31 -67 0
-34 -37 0
-34 -229 0
-37 -34 0
-37 -157 0
-40 -142 0
-40 -181 0
-43 -169 0
-43 -196 0
-46 -31 0
-46 -232 0
-49 -112 0
-49 -115 0
-52 -58 0
-52 -151 0
-55 -163 0
-55 -166 0
-58 -52 0
-58 -97 0
-61 -79 0
-61 -238 0
-64 -94 0
-64 -223 0
-67 -31 0
-67 -91 0
-70 -22 0
-70 -133 0
-73 -25 0
-73 -91 0
-76 -115 0
-76 -235 0
-79 -61 0
-79 -85 0
-82 -13 0
-82 -88 0
-85 -79 0
-85 -145 0
-88 -82 0
-88 -223 0
-91 -67 0
-91 -73 0
-94 -64 0
-94 -193 0
-97 -1 0
-97 -58 0
-100 -136 0
-100 -208 0
-103 -145 0
-103 -211 0
-106 -112 0
-106 -202 0
-109 -184 0
-109 -235 0
-112 -49 0
-112 -106 0
-115 -49 0
-115 -76 0
-118 -148 0
-118 -154 0
-121 -166 0
-121 -175 0
-124 -178 0
-124 -208 0
-127 -130 0
-127 -175 0
-130 -127 0
-130 -217 0
-133 -28 0
-133 -70 0
-136 -100 0
-136 -238 0
-139 -187 0
-142 -7 0
-142 -40 0
-145 -85 0
-145 -103 0
-148 -118 0
-148 -211 0
-151 -25 0
-151 -52 0
-154 -118 0
-154 -160 0
-157 -37 0
-157 -169 0
-160 -154 0
-160 -190 0
-163 -10 0
-163 -55 0
-166 -55 0
-166 -121 0
-169 -43 0
-169 -157 0
-172 -4 0
-172 -19 0
-175 -121 0
-175 -127 0
-178 -124 0
-178 -190 0
-181 -40 0
-181 -220 0
-184 -109 0
-184 -205 0
-187 -139 0
-190 -160 0
-190 -178 0
-193 -4 0
-193 -94 0
-196 -43 0
-196 -232 0
-199 -13 0
-199 -16 0
-202 -22 0
-202 -106 0
-205 -184 0
-205 -217 0
-208 -100 0
-208 -124 0
-211 -103 0
-211 -148 0
-214 -1 0
-214 -10 0
-217 -130 0
-217 -205 0
-220 -16 0
-220 -181 0
-223 -64 0
-223 -88 0
-229 -28 0
-229 -34 0
-232 -46 0
-232 -196 0
-235 -76 0
-235 -109 0
-238 -61 0
-238 -136 0
-2 -98 0
-2 -215 0
-5 -173 0
-5 -194 0
-8 -20 0
-8 -143 0
-11 -164 0
-11 -215 0
-14 -83 0
-14 -200 0
-17 -200 0
-17 -221 0
-20 -8 0
-20 -173 0
-23 -71 0
-23 -203 0
-26 -74 0
-26 -152 0
-29 -134 0
-29 -230 0
-32 -47 0
-32 -68 0
-35 -38 0
-35 -230 0
-38 -35 0
-38 -158 0
-41 -143 0
-41 -182 0
-44 -170 0
-44 -197 0
-47 -32 0
-47 -233 0
-50 -113 0
-50 -116 0
-53 -59 0
-53 -152 0
-56 -164 0
-56 -167 0
-59 -53 0
-59 -98 0
-62 -80 0
-62 -239 0
-65 -95 0
-65 -224 0
-68 -32 0
-68 -92 0
-71 -23 0
-71 -134 0
-74 -26 0
-74 -92 0
-77 -116 0
-77 -236 0
-80 -62 0
-80 -86 0
-83 -14 0
-83 -89 0
-86 -80 0
-86 -146 0
-89 -83 0
-89 -224 0
-92 -68 0
-92 -74 0
-95 -65 0
-95 -194 0
-98 -2 0
-98 -59 0
-101 -137 0
-101 -209 0
-104 -146 0
-104 -212 0
-107 -113 0
-107 -203 0
-110 -185 0
-110 -236 0
-113 -50 0
-113 -107 0
-116 -50 0
-116 -77 0
-119 -149 0
-119 -155 0
-122 -167 0
-122 -176 0
-125 -179 0
-125 -209 0
-128 -131 0
-128 -176 0
-131 -128 0
-131 -218 0
-134 -29 0
-134 -71 0
-137 -101 0
-137 -239 0
-140 -188 0
-143 -8 0
-143 -41 0
-146 -86 0
-146 -104 0
-149 -119 0
-149 -212 0
-152 -26 0
-152 -53 0
-155 -119 0
-155 -161 0
-158 -38 0
-158 -170 0
-161 -155 0
-161 -191 0
-164 -11 0
-164 -56 0
-167 -56 0
-167 -122 0
-170 -44 0
-170 -158 0
-173 -5 0
-173 -20 0
-176 -122 0
-176 -128 0
-179 -125 0
-179 -191 0
-182 -41 0
-182 -221 0
-185 -110 0
-185 -206 0
-188 -140 0
-191 -161 0
-191 -179 0
-194 -5 0
-194 -95 0
-197 -44 0
-197 -233 0
-200 -14 0
-200 -17 0
-203 -23 0
-203 -107 0
-206 -185 0
-206 -218 0
-209 -101 0
-209 -125 0
-212 -104 0
-212 -149 0
-215 -2 0
-215 -11 0
-218 -131 0
-218 -206 0
-221 -17 0
-221 -182 0
-224 -65 0
-224 -89 0
-230 -29 0
-230 -35 0
-233 -47 0
-233 -197 0
-236 -77 0
-236 -110 0
-239 -62 0
-239 -137 0
-3 -99 0
-3 -216 0
-6 -174 0
-6 -195 0
-9 -21 0
-9 -144 0
-12 -165 0
-12 -216 0
-15 -84 0
-15 -201 0
-18 -201 0
-18 -222 0
-21 -9 0
-21 -174 0
-24 -72 0
-24 -204 0
-27 -75 0
-27 -153 0
-30 -135 0
-30 -231 0
-33 -48 0
-33 -69 0
-36 -39 0
-36 -231 0
-39 -36 0
-39 -159 0
-42 -144 0
-42 -183 0
-45 -171 0
-45 -198 0
-48 -33 0
-48 -234 0
-51 -114 0
-51 -117 0
-54 -60 0
-54 -153 0
-57 -165 0
-57 -168 0
-60 -54 0
-60 -99 0
-63 -81 0
-63 -240 0
-66 -96 0
-66 -225 0
-69 -33 0
-69 -93 0
-72 -24 0
-72 -135 0
-75 -27 0
-75 -93 0
-78 -117 0
-78 -237 0
-81 -63 0
-81 -87 0
-84 -15 0
-84 -90 0
-87 -81 0
-87 -147 0
-90 -84 0
-90 -225 0
-93 -69 0
-93 -75 0
-96 -66 0
-96 -195 0
-99 -3 0
-99 -60 0
-102 -138 0
-102 -210 0
-105 -147 0
-105 -213 0
-108 -114 0
-108 -204 0
-111 -186 0
-111 -237 0
-114 -51 0
-114 -108 0
-117 -51 0
-117 -78 0
-120 -150 0
-120 -156 0
-123 -168 0
-123 -177 0
-126 -180 0
-126 -210 0
-129 -132 0
-129 -177 0
-132 -129 0
-132 -219 0
-135 -30 0
-135 -72 0
-138 -102 0
-138 -240 0
-141 -189 0
-144 -9 0
-144 -42 0
-147 -87 0
-147 -105 0
-150 -120 0
-150 -213 0
-153 -27 0
-153 -54 0
-156 -120 0
-156 -162 0
-159 -39 0
-159 -171 0
-162 -156 0
-162 -192 0
-165 -12 0
-165 -57 0
-168 -57 0
-168 -123 0
-171 -45 0
-171 -159 0
-174 -6 0
-174 -21 0
-177 -123 0
-177 -129 0
-180 -126 0
-180 -192 0
-183 -42 0
-183 -222 0
-186 -111 0
-186 -207 0
-189 -141 0
-192 -162 0
-192 -180 0
-195 -6 0
-195 -96 0
-198 -45 0
-198 -234 0
-201 -15 0
-201 -18 0
-204 -24 0
-204 -108 0
-207 -186 0
-207 -219 0
-210 -102 0
-210 -126 0
-213 -105 0
-213 -150 0
-216 -3 0
-216 -12 0
-219 -132 0
-219 -207 0
-222 -18 0
-222 -183 0
-225 -66 0
-225 -90 0
-231 -30 0
-231 -36 0
-234 -48 0
-234 -198 0
-237 -78 0
-237 -111 0
-240 -63 0
-240 -138 0
